138
0 73 70 26 135 114 83 91 42 27 
76 8 24 58 81 79 124 100 4 112 
132 113 41 52 102 110 6 2 49 29 
105 77 111 53 109 44 64 74 120 57 
5 82 3 101 118 137 7 51 122 62 
12 75 31 117 13 11 103 20 54 87 
123 18 90 36 33 93 38 15 86 125 
55 63 136 121 60 130 69 10 106 71 
115 133 1 131 21 127 85 34 23 40 
43 88 92 96 134 116 59 46 32 126 
22 48 129 16 108 56 128 19 28 89 
68 84 65 98 45 78 72 37 17 95 
67 104 94 66 50 61 97 25 99 80 
39 9 47 35 14 30 119 107 
